30
0 1 0.78 0.32
0 2 0.56 0.28
0 3 0.38 0.35
0 4 0.56 0.32
0 5 0.64 0.28
0 6 0.78 0.2
0 7 0.49 0.29
0 8 0.54 0.1
0 9 0.2 0.2
0 10 0.68 0.22
0 11 0.63 0.06
0 12 0.43 0.24
0 13 0.53 0.34
0 14 0.54 0.37
0 15 0.58 0.44
0 16 0.41 0.22
0 17 0.56 0.34
0 18 0.36 0.2
0 19 0.65 0.24
0 20 0.46 0.16
0 21 0.48 0.12
0 22 0.72 0.14
0 23 0.62 0.33
0 24 0.57 0.34
0 25 0.78 0.27
0 26 0.78 0.22
0 27 0.54 0.3
0 28 0.44 0.18
0 29 0.36 0.18
1 2 0.46 0.35
1 3 0.4 0.16
1 4 0.42 0.22
1 5 0.76 0.15
1 6 0.41 0.36
1 7 0.4 0.16
1 8 0.58 0.24
1 9 0.76 0.34
1 10 0.82 0.32
1 11 0.71 0.28
1 12 0.35 0.26
1 13 0.67 0.16
1 14 0.56 0.05
1 15 0.62 0.3
1 16 0.72 0.32
1 17 0.56 0.42
1 18 0.55 0.32
1 19 0.5 0.21
1 20 0.56 0.16
1 21 0.8 0.34
1 22 0.38 0.29
1 23 0.74 0.1
1 24 0.71 0.22
1 25 0.84 0.27
1 26 0.66 0.33
1 27 0.5 0.32
1 28 0.7 0.29
1 29 0.65 0.23
2 3 0.74 0.24
2 4 0.4 0.18
2 5 0.56 0.26
2 6 0.59 0.47
2 7 0.52 0.3
2 8 0.77 0.32
2 9 0.62 0.32
2 10 0.42 0.3
2 11 0.55 0.28
2 12 0.6 0.38
2 13 0.54 0.36
2 14 0.36 0.3
2 15 0.38 0.36
2 16 0.64 0.3
2 17 0.7 0.3
2 18 0.6 0.37
2 19 0.4 0.26
2 20 0.47 0.25
2 21 0.36 0.29
2 22 0.64 0.2
2 23 0.48 0.31
2 24 0.72 0.42
2 25 0.38 0.14
2 26 0.63 0.35
2 27 0.65 0.38
2 28 0.69 0.38
2 29 0.54 0.26
3 4 0.72 0.06
3 5 0.56 0.29
3 6 0.74 0.42
3 7 0.8 0.16
3 8 0.6 0.33
3 9 0.36 0.24
3 10 0.66 0.26
3 11 0.74 0.32
3 12 0.48 0.2
3 13 0.8 0.3
3 14 0.45 0.21
3 15 0.63 0.32
3 16 0.52 0.26
3 17 0.48 0.36
3 18 0.74 0.26
3 19 0.36 0.11
3 20 0.44 0.24
3 21 0.78 0.32
3 22 0.62 0.38
3 23 0.44 0.24
3 24 0.42 0.18
3 25 0.66 0.35
3 26 0.74 0.42
3 27 0.52 0.26
3 28 0.82 0.37
3 29 0.68 0.25
4 5 0.78 0.23
4 6 0.62 0.39
4 7 0.7 0.21
4 8 0.64 0.3
4 9 0.68 0.27
4 10 0.58 0.32
4 11 0.36 0.26
4 12 0.72 0.26
4 13 0.5 0.25
4 14 0.48 0.23
4 15 0.74 0.32
4 16 0.61 0.32
4 17 0.59 0.3
4 18 0.2 0.2
4 19 0.61 0.16
4 20 0.6 0.3
4 21 0.52 0.28
4 22 0.65 0.32
4 23 0.37 0.18
4 24 0.6 0.24
4 25 0.67 0.3
4 26 0.42 0.36
4 27 0.62 0.2
4 28 0.53 0.38
4 29 0.58 0.3
5 6 0.52 0.21
5 7 0.57 0.21
5 8 0.58 0.21
5 9 0.48 0.39
5 10 0.7 0.27
5 11 0.78 0.22
5 12 0.6 0.29
5 13 0.64 0.21
5 14 0.66 0.1
5 15 0.64 0.25
5 16 0.5 0.27
5 17 0.74 0.37
5 18 0.71 0.35
5 19 0.65 0.26
5 20 0.84 0.31
5 21 0.88 0.28
5 22 0.88 0.24
5 23 0.6 0.05
5 24 0.58 0.17
5 25 0.81 0.31
5 26 0.84 0.18
5 27 0.53 0.17
5 28 0.64 0.29
5 29 0.73 0.29
6 7 0.55 0.34
6 8 0.5 0.24
6 9 0.78 0.4
6 10 0.68 0.38
6 11 0.6 0.26
6 12 0.76 0.22
6 13 0.7 0.32
6 14 0.68 0.31
6 15 0.51 0.4
6 16 0.56 0.38
6 17 0.32 0.28
6 18 0.42 0.19
6 19 0.6 0.36
6 20 0.62 0.29
6 21 0.86 0.27
6 22 0.56 0.34
6 23 0.4 0.26
6 24 0.85 0.34
6 25 0.59 0.4
6 26 0.6 0.36
6 27 0.57 0.35
6 28 0.72 0.38
6 29 0.59 0.22
7 8 0.7 0.27
7 9 0.69 0.18
7 10 0.72 0.31
7 11 0.76 0.3
7 12 0.75 0.12
7 13 0.5 0.22
7 14 0.63 0.11
7 15 0.41 0.16
7 16 0.66 0.31
7 17 0.66 0.42
7 18 0.5 0.18
7 19 0.84 0.05
7 20 0.68 0.26
7 21 0.86 0.24
7 22 0.78 0.33
7 23 0.48 0.16
7 24 0.68 0.24
7 25 0.53 0.22
7 26 0.65 0.39
7 27 0.77 0.37
7 28 0.64 0.36
7 29 0.72 0.19
8 9 0.68 0.3
8 10 0.62 0.2
8 11 0.29 0.04
8 12 0.85 0.22
8 13 0.58 0.32
8 14 0.61 0.27
8 15 0.66 0.36
8 16 0.46 0.2
8 17 0.5 0.3
8 18 0.44 0.18
8 19 0.63 0.22
8 20 0.74 0.15
8 21 0.68 0.1
8 22 0.7 0.12
8 23 0.7 0.26
8 24 0.74 0.24
8 25 0.65 0.25
8 26 0.64 0.12
8 27 0.64 0.28
8 28 0.65 0.23
8 29 0.23 0.08
9 10 0.7 0.16
9 11 0.43 0.26
9 12 0.6 0.3
9 13 0.53 0.4
9 14 0.71 0.29
9 15 0.62 0.34
9 16 0.52 0.16
9 17 0.59 0.47
9 18 0.56 0.36
9 19 0.56 0.13
9 20 0.41 0.29
9 21 0.68 0.32
9 22 0.76 0.34
9 23 0.72 0.34
9 24 0.66 0.42
9 25 0.73 0.18
9 26 0.72 0.28
9 27 0.7 0.26
9 28 0.54 0.18
9 29 0.46 0.27
10 11 0.72 0.16
10 12 0.7 0.19
10 13 0.38 0.29
10 14 0.58 0.27
10 15 0.53 0.42
10 16 0.56 0.0
10 17 0.82 0.44
10 18 0.6 0.25
10 19 0.7 0.29
10 20 0.74 0.25
10 21 0.36 0.22
10 22 0.94 0.24
10 23 0.62 0.22
10 24 0.56 0.31
10 25 0.5 0.25
10 26 0.61 0.29
10 27 0.79 0.32
10 28 0.62 0.18
10 29 0.78 0.18
11 12 0.84 0.18
11 13 0.79 0.28
11 14 0.6 0.31
11 15 0.44 0.39
11 16 0.57 0.16
11 17 0.54 0.28
11 18 0.46 0.14
11 19 0.78 0.26
11 20 0.46 0.19
11 21 0.39 0.06
11 22 0.51 0.08
11 23 0.73 0.27
11 24 0.66 0.28
11 25 0.55 0.21
11 26 0.5 0.16
11 27 0.64 0.24
11 28 0.68 0.24
11 29 0.52 0.12
12 13 0.32 0.1
12 14 0.24 0.21
12 15 0.76 0.28
12 16 0.64 0.19
12 17 0.59 0.3
12 18 0.79 0.06
12 19 0.62 0.17
12 20 0.59 0.3
12 21 0.53 0.12
12 22 0.53 0.26
12 23 0.4 0.24
12 24 0.36 0.12
12 25 0.56 0.24
12 26 0.81 0.34
12 27 0.62 0.3
12 28 0.49 0.37
12 29 0.79 0.3
13 14 0.56 0.11
13 15 0.78 0.32
13 16 0.49 0.29
13 17 0.44 0.26
13 18 0.7 0.16
13 19 0.9 0.27
13 20 0.62 0.26
13 21 0.6 0.22
13 22 0.78 0.35
13 23 0.54 0.16
13 24 0.47 0.22
13 25 0.3 0.22
13 26 0.55 0.39
13 27 0.78 0.38
13 28 0.64 0.34
13 29 0.67 0.33
14 15 0.52 0.25
14 16 0.54 0.27
14 17 0.83 0.37
14 18 0.68 0.27
14 19 0.39 0.16
14 20 0.58 0.21
14 21 0.46 0.29
14 22 0.77 0.24
14 23 0.4 0.05
14 24 0.6 0.17
14 25 0.69 0.31
14 26 0.6 0.28
14 27 0.86 0.27
14 28 0.45 0.29
14 29 0.59 0.28
15 16 0.56 0.42
15 17 0.76 0.4
15 18 0.88 0.34
15 19 0.48 0.21
15 20 0.55 0.42
15 21 0.74 0.4
15 22 0.52 0.31
15 23 0.48 0.2
15 24 0.74 0.18
15 25 0.49 0.34
15 26 0.5 0.24
15 27 0.84 0.22
15 28 0.6 0.35
15 29 0.78 0.35
16 17 0.76 0.44
16 18 0.47 0.25
16 19 0.75 0.29
16 20 0.69 0.25
16 21 0.8 0.22
16 22 0.38 0.24
16 23 0.24 0.22
16 24 0.62 0.31
16 25 0.65 0.25
16 26 0.65 0.29
16 27 0.66 0.32
16 28 0.34 0.18
16 29 0.23 0.18
17 18 0.74 0.24
17 19 0.46 0.4
17 20 0.72 0.41
17 21 0.68 0.32
17 22 0.6 0.2
17 23 0.72 0.39
17 24 0.57 0.36
17 25 0.4 0.34
17 26 0.28 0.19
17 27 0.67 0.38
17 28 0.5 0.3
17 29 0.62 0.34
18 19 0.62 0.23
18 20 0.4 0.24
18 21 0.54 0.08
18 22 0.52 0.22
18 23 0.57 0.3
18 24 0.8 0.18
18 25 0.72 0.26
18 26 0.48 0.3
18 27 0.58 0.26
18 28 0.58 0.37
18 29 0.67 0.26
19 20 0.5 0.21
19 21 0.54 0.29
19 22 0.5 0.28
19 23 0.53 0.21
19 24 0.43 0.29
19 25 0.72 0.27
19 26 0.63 0.34
19 27 0.63 0.32
19 28 0.62 0.31
19 29 0.52 0.14
20 21 0.67 0.25
20 22 0.74 0.21
20 23 0.76 0.26
20 24 0.58 0.26
20 25 0.32 0.11
20 26 0.45 0.24
20 27 0.74 0.41
20 28 0.5 0.13
20 29 0.51 0.07
21 22 0.82 0.14
21 23 0.76 0.33
21 24 0.36 0.24
21 25 0.46 0.18
21 26 0.68 0.22
21 27 0.79 0.18
21 28 0.74 0.3
21 29 0.77 0.18
22 23 0.62 0.19
22 24 0.52 0.31
22 25 0.58 0.29
22 26 0.46 0.24
22 27 0.66 0.32
22 28 0.62 0.32
22 29 0.61 0.14
23 24 0.52 0.12
23 25 0.44 0.26
23 26 0.56 0.23
23 27 0.78 0.22
23 28 0.43 0.32
23 29 0.47 0.31
24 25 0.77 0.36
24 26 0.7 0.35
24 27 0.46 0.34
24 28 0.7 0.39
24 29 0.79 0.19
25 26 0.25 0.24
25 27 0.48 0.36
25 28 0.76 0.24
25 29 0.42 0.18
26 27 0.39 0.29
26 28 0.51 0.11
26 29 0.42 0.2
27 28 0.7 0.4
27 29 0.53 0.34
28 29 0.57 0.2
